results/res_prop_muc/res_Cimatti_mathsat_cores/QF_LIA/MULTIPLIER_6.msat.smt.smt2.out
### boolMucExtractionTime 1548542
