results/res_prop_muc/res_Cimatti_mathsat_cores/QF_LIA/MULTIPLIER_6.msat.smt.smt2.res
unsat
( c10
  c100
  c102
  c103
  c104
  c105
  c106
  c107
  c11
  c110
  c111
  c113
  c114
  c12
  c13
  c14
  c15
  c16
  c17
  c18
  c19
  c2
  c20
  c21
  c22
  c23
  c24
  c25
  c26
  c27
  c28
  c3
  c30
  c31
  c32
  c33
  c34
  c35
  c36
  c37
  c38
  c39
  c4
  c40
  c41
  c42
  c43
  c44
  c45
  c47
  c48
  c49
  c5
  c51
  c52
  c55
  c56
  c58
  c59
  c6
  c60
  c61
  c62
  c63
  c64
  c65
  c66
  c67
  c68
  c69
  c7
  c70
  c71
  c72
  c73
  c74
  c75
  c76
  c77
  c78
  c79
  c8
  c80
  c81
  c82
  c83
  c84
  c86
  c87
  c88
  c89
  c9
  c90
  c91
  c92
  c93
  c94
  c95
  c96
  c98
  c99 )
